<instance format="XCSP3" type="COP">
  <variables>
    <array id="x" note="x[i] is the successor node of node i (in the cycle where i belongs)" size="[20]"> 0..19 </array>
    <array id="y" note="y[i] is the cycle (index) where the node i belongs" size="[20]"> 0..19 </array>
    <array id="aux_gb" note="aux_gb[i] is the ith auxiliary variable having been automatically introduced" size="[20]">
      <domain for="aux_gb[0] aux_gb[12]"> -1..94 </domain>
      <domain for="aux_gb[1] aux_gb[7] aux_gb[19]"> -1..87 </domain>
      <domain for="aux_gb[2] aux_gb[6]"> -1..81 </domain>
      <domain for="aux_gb[3] aux_gb[5]"> -1..95 </domain>
      <domain for="aux_gb[4]"> -1..97 </domain>
      <domain for="aux_gb[8]"> -1..68 </domain>
      <domain for="aux_gb[9]"> -1..100 </domain>
      <domain for="aux_gb[10] aux_gb[11]"> -1..99 </domain>
      <domain for="aux_gb[13] aux_gb[18]"> -1..98 </domain>
      <domain for="aux_gb[14] aux_gb[15]"> -1..82 </domain>
      <domain for="aux_gb[16]"> -1..93 </domain>
      <domain for="aux_gb[17]"> -1..80 </domain>
    </array>
  </variables>
  <constraints>
    <allDifferent> x[] </allDifferent>
    <group note="ensuring correct cycles">
      <element>
        <list> y[] </list>
        <index> %0 </index>
        <value> %1 </value>
      </element>
      <args> x[0] y[0] </args>
      <args> x[1] y[1] </args>
      <args> x[2] y[2] </args>
      <args> x[3] y[3] </args>
      <args> x[4] y[4] </args>
      <args> x[5] y[5] </args>
      <args> x[6] y[6] </args>
      <args> x[7] y[7] </args>
      <args> x[8] y[8] </args>
      <args> x[9] y[9] </args>
      <args> x[10] y[10] </args>
      <args> x[11] y[11] </args>
      <args> x[12] y[12] </args>
      <args> x[13] y[13] </args>
      <args> x[14] y[14] </args>
      <args> x[15] y[15] </args>
      <args> x[16] y[16] </args>
      <args> x[17] y[17] </args>
      <args> x[18] y[18] </args>
      <args> x[19] y[19] </args>
    </group>
    <group note="disabling infeasible arcs">
      <intension> ne(%0,%1) </intension>
      <args> x[0] 1 </args>
      <args> x[0] 6 </args>
      <args> x[0] 7 </args>
      <args> x[0] 8 </args>
      <args> x[0] 9 </args>
      <args> x[0] 11 </args>
      <args> x[0] 12 </args>
      <args> x[0] 13 </args>
      <args> x[0] 14 </args>
      <args> x[0] 19 </args>
      <args> x[1] 0 </args>
      <args> x[1] 2 </args>
      <args> x[1] 4 </args>
      <args> x[1] 5 </args>
      <args> x[1] 6 </args>
      <args> x[1] 7 </args>
      <args> x[1] 10 </args>
      <args> x[1] 11 </args>
      <args> x[1] 12 </args>
      <args> x[1] 13 </args>
      <args> x[1] 14 </args>
      <args> x[1] 16 </args>
      <args> x[1] 17 </args>
      <args> x[1] 18 </args>
      <args> x[2] 3 </args>
      <args> x[2] 8 </args>
      <args> x[2] 9 </args>
      <args> x[2] 10 </args>
      <args> x[2] 14 </args>
      <args> x[2] 15 </args>
      <args> x[2] 16 </args>
      <args> x[2] 17 </args>
      <args> x[2] 19 </args>
      <args> x[3] 1 </args>
      <args> x[3] 2 </args>
      <args> x[3] 6 </args>
      <args> x[3] 9 </args>
      <args> x[3] 15 </args>
      <args> x[3] 16 </args>
      <args> x[3] 17 </args>
      <args> x[3] 18 </args>
      <args> x[4] 1 </args>
      <args> x[4] 3 </args>
      <args> x[4] 6 </args>
      <args> x[4] 7 </args>
      <args> x[4] 9 </args>
      <args> x[4] 10 </args>
      <args> x[4] 11 </args>
      <args> x[4] 12 </args>
      <args> x[4] 14 </args>
      <args> x[4] 15 </args>
      <args> x[4] 18 </args>
      <args> x[4] 19 </args>
      <args> x[5] 4 </args>
      <args> x[5] 9 </args>
      <args> x[5] 13 </args>
      <args> x[5] 14 </args>
      <args> x[5] 16 </args>
      <args> x[5] 18 </args>
      <args> x[5] 19 </args>
      <args> x[6] 0 </args>
      <args> x[6] 1 </args>
      <args> x[6] 2 </args>
      <args> x[6] 3 </args>
      <args> x[6] 9 </args>
      <args> x[6] 11 </args>
      <args> x[6] 12 </args>
      <args> x[6] 13 </args>
      <args> x[6] 15 </args>
      <args> x[6] 16 </args>
      <args> x[6] 17 </args>
      <args> x[6] 19 </args>
      <args> x[7] 0 </args>
      <args> x[7] 2 </args>
      <args> x[7] 3 </args>
      <args> x[7] 5 </args>
      <args> x[7] 6 </args>
      <args> x[7] 8 </args>
      <args> x[7] 9 </args>
      <args> x[7] 10 </args>
      <args> x[7] 12 </args>
      <args> x[7] 14 </args>
      <args> x[7] 15 </args>
      <args> x[7] 16 </args>
      <args> x[7] 17 </args>
      <args> x[8] 0 </args>
      <args> x[8] 1 </args>
      <args> x[8] 2 </args>
      <args> x[8] 4 </args>
      <args> x[8] 5 </args>
      <args> x[8] 6 </args>
      <args> x[8] 7 </args>
      <args> x[8] 9 </args>
      <args> x[8] 12 </args>
      <args> x[8] 14 </args>
      <args> x[8] 15 </args>
      <args> x[8] 16 </args>
      <args> x[8] 18 </args>
      <args> x[9] 0 </args>
      <args> x[9] 4 </args>
      <args> x[9] 6 </args>
      <args> x[9] 7 </args>
      <args> x[9] 14 </args>
      <args> x[9] 16 </args>
      <args> x[9] 17 </args>
      <args> x[9] 18 </args>
      <args> x[9] 19 </args>
      <args> x[10] 1 </args>
      <args> x[10] 3 </args>
      <args> x[10] 9 </args>
      <args> x[10] 11 </args>
      <args> x[10] 15 </args>
      <args> x[10] 16 </args>
      <args> x[10] 19 </args>
      <args> x[11] 1 </args>
      <args> x[11] 2 </args>
      <args> x[11] 3 </args>
      <args> x[11] 4 </args>
      <args> x[11] 7 </args>
      <args> x[11] 8 </args>
      <args> x[11] 12 </args>
      <args> x[11] 13 </args>
      <args> x[11] 15 </args>
      <args> x[11] 18 </args>
      <args> x[11] 19 </args>
      <args> x[12] 0 </args>
      <args> x[12] 1 </args>
      <args> x[12] 3 </args>
      <args> x[12] 5 </args>
      <args> x[12] 6 </args>
      <args> x[12] 7 </args>
      <args> x[12] 8 </args>
      <args> x[12] 9 </args>
      <args> x[12] 10 </args>
      <args> x[12] 13 </args>
      <args> x[12] 14 </args>
      <args> x[12] 15 </args>
      <args> x[12] 16 </args>
      <args> x[13] 0 </args>
      <args> x[13] 3 </args>
      <args> x[13] 4 </args>
      <args> x[13] 5 </args>
      <args> x[13] 7 </args>
      <args> x[13] 8 </args>
      <args> x[13] 9 </args>
      <args> x[13] 10 </args>
      <args> x[13] 11 </args>
      <args> x[13] 14 </args>
      <args> x[13] 16 </args>
      <args> x[13] 18 </args>
      <args> x[14] 0 </args>
      <args> x[14] 1 </args>
      <args> x[14] 2 </args>
      <args> x[14] 3 </args>
      <args> x[14] 4 </args>
      <args> x[14] 7 </args>
      <args> x[14] 11 </args>
      <args> x[14] 12 </args>
      <args> x[14] 13 </args>
      <args> x[14] 16 </args>
      <args> x[14] 18 </args>
      <args> x[14] 19 </args>
      <args> x[15] 3 </args>
      <args> x[15] 5 </args>
      <args> x[15] 6 </args>
      <args> x[15] 11 </args>
      <args> x[15] 12 </args>
      <args> x[15] 13 </args>
      <args> x[15] 14 </args>
      <args> x[16] 2 </args>
      <args> x[16] 3 </args>
      <args> x[16] 4 </args>
      <args> x[16] 5 </args>
      <args> x[16] 7 </args>
      <args> x[16] 8 </args>
      <args> x[16] 9 </args>
      <args> x[16] 10 </args>
      <args> x[16] 11 </args>
      <args> x[16] 14 </args>
      <args> x[16] 15 </args>
      <args> x[16] 17 </args>
      <args> x[16] 18 </args>
      <args> x[16] 19 </args>
      <args> x[17] 6 </args>
      <args> x[17] 7 </args>
      <args> x[17] 8 </args>
      <args> x[17] 9 </args>
      <args> x[17] 10 </args>
      <args> x[17] 15 </args>
      <args> x[17] 18 </args>
      <args> x[17] 19 </args>
      <args> x[18] 0 </args>
      <args> x[18] 1 </args>
      <args> x[18] 2 </args>
      <args> x[18] 3 </args>
      <args> x[18] 6 </args>
      <args> x[18] 7 </args>
      <args> x[18] 9 </args>
      <args> x[18] 10 </args>
      <args> x[18] 11 </args>
      <args> x[18] 12 </args>
      <args> x[18] 13 </args>
      <args> x[18] 15 </args>
      <args> x[18] 16 </args>
      <args> x[18] 17 </args>
      <args> x[19] 1 </args>
      <args> x[19] 2 </args>
      <args> x[19] 3 </args>
      <args> x[19] 4 </args>
      <args> x[19] 5 </args>
      <args> x[19] 6 </args>
      <args> x[19] 7 </args>
      <args> x[19] 8 </args>
      <args> x[19] 9 </args>
      <args> x[19] 10 </args>
      <args> x[19] 11 </args>
      <args> x[19] 13 </args>
      <args> x[19] 14 </args>
      <args> x[19] 16 </args>
      <args> x[19] 17 </args>
    </group>
    <binPacking note="each cycle has k as maximum length">
      <list> y[] </list>
      <sizes> 1x20 </sizes>
      <condition> (le,3) </condition>
    </binPacking>
    <precedence class="symmetry-breaking"> y[] </precedence>
    <element>
      <list> 0 -1 94 52 85 26 -1 -1 -1 -1 2 -1 -1 -1 -1 82 91 25 85 -1 </list>
      <index> x[0] </index>
      <value> aux_gb[0] </value>
    </element>
    <element>
      <list> -1 0 -1 16 -1 -1 -1 -1 47 75 -1 -1 -1 -1 -1 24 -1 -1 -1 87 </list>
      <index> x[1] </index>
      <value> aux_gb[1] </value>
    </element>
    <element>
      <list> 11 48 0 -1 19 31 20 40 -1 -1 -1 50 81 18 -1 -1 -1 -1 30 -1 </list>
      <index> x[2] </index>
      <value> aux_gb[2] </value>
    </element>
    <element>
      <list> 45 -1 -1 0 6 54 -1 92 64 -1 37 95 32 19 64 -1 -1 -1 -1 72 </list>
      <index> x[3] </index>
      <value> aux_gb[3] </value>
    </element>
    <element>
      <list> 24 -1 97 -1 0 2 -1 -1 60 -1 -1 -1 -1 96 -1 -1 77 38 -1 -1 </list>
      <index> x[4] </index>
      <value> aux_gb[4] </value>
    </element>
    <element>
      <list> 76 82 83 2 -1 0 24 95 31 -1 38 19 91 -1 -1 45 -1 80 -1 -1 </list>
      <index> x[5] </index>
      <value> aux_gb[5] </value>
    </element>
    <element>
      <list> -1 -1 -1 -1 11 81 0 34 3 -1 49 -1 -1 -1 3 -1 -1 -1 7 -1 </list>
      <index> x[6] </index>
      <value> aux_gb[6] </value>
    </element>
    <element>
      <list> -1 87 -1 -1 38 -1 -1 0 -1 -1 -1 69 -1 54 -1 -1 -1 -1 4 1 </list>
      <index> x[7] </index>
      <value> aux_gb[7] </value>
    </element>
    <element>
      <list> -1 -1 -1 7 -1 -1 -1 -1 0 -1 29 23 -1 9 -1 -1 -1 50 -1 68 </list>
      <index> x[8] </index>
      <value> aux_gb[8] </value>
    </element>
    <element>
      <list> -1 98 4 85 -1 100 -1 -1 70 0 30 17 91 57 -1 3 -1 -1 -1 -1 </list>
      <index> x[9] </index>
      <value> aux_gb[9] </value>
    </element>
    <element>
      <list> 99 -1 69 -1 66 74 83 69 63 -1 0 -1 26 13 67 -1 -1 68 21 -1 </list>
      <index> x[10] </index>
      <value> aux_gb[10] </value>
    </element>
    <element>
      <list> 2 -1 -1 -1 -1 52 15 -1 -1 19 46 0 -1 -1 99 -1 54 63 -1 -1 </list>
      <index> x[11] </index>
      <value> aux_gb[11] </value>
    </element>
    <element>
      <list> -1 -1 32 -1 57 -1 -1 -1 -1 -1 -1 94 0 -1 -1 -1 -1 84 61 22 </list>
      <index> x[12] </index>
      <value> aux_gb[12] </value>
    </element>
    <element>
      <list> -1 21 20 -1 -1 -1 90 -1 -1 -1 -1 -1 98 0 -1 53 -1 84 -1 83 </list>
      <index> x[13] </index>
      <value> aux_gb[13] </value>
    </element>
    <element>
      <list> -1 -1 -1 -1 -1 79 11 -1 77 3 18 -1 -1 -1 0 62 -1 82 -1 -1 </list>
      <index> x[14] </index>
      <value> aux_gb[14] </value>
    </element>
    <element>
      <list> 49 31 28 -1 62 -1 -1 74 34 82 14 -1 -1 -1 -1 0 40 62 56 10 </list>
      <index> x[15] </index>
      <value> aux_gb[15] </value>
    </element>
    <element>
      <list> 71 93 -1 -1 -1 -1 28 -1 -1 -1 -1 -1 31 56 -1 -1 0 -1 -1 -1 </list>
      <index> x[16] </index>
      <value> aux_gb[16] </value>
    </element>
    <element>
      <list> 71 79 3 80 6 43 -1 -1 -1 -1 -1 18 42 71 50 -1 7 0 -1 -1 </list>
      <index> x[17] </index>
      <value> aux_gb[17] </value>
    </element>
    <element>
      <list> -1 -1 -1 -1 96 3 -1 -1 25 -1 -1 -1 -1 -1 47 -1 -1 -1 0 98 </list>
      <index> x[18] </index>
      <value> aux_gb[18] </value>
    </element>
    <element>
      <list> 37 -1 -1 -1 -1 -1 -1 -1 -1 -1 -1 -1 87 -1 -1 78 -1 -1 2 0 </list>
      <index> x[19] </index>
      <value> aux_gb[19] </value>
    </element>
  </constraints>
  <objectives>
    <maximize note="maximizing the sum of arc weights of selected cycles" type="sum"> aux_gb[] </maximize>
  </objectives>
</instance>
